226
67
46
0
71
33
88
136
57
629
163
48
165
15
22
164
0
18
85
27
265
139
65
395
86
0
14
201
102
70
44
0
114
263
109
325
127
38
329
326
72
220
105
69
14
46
101
229
102
122
94
124
0
171
19
243
181
215
37
27
133
34
155
15
104
71
56
315
285
85
73
293
316
74
42
15
127
120
120
458
317
100
336
154
86
56
144
124
128
53
391
0
31
124
120
207
89
129
296
253
